NAME : a280.opt.tour
COMMENT : 2790.82207684803  #   Population: 200   Iteration: 1000   Elitism Ratio: 0.1   Mutation Ratio: 0.09   Crossover Ratio: 0.95
TYPE : TOUR
DIMENSION : 280
TOUR_SECTION
1
2
3
279
4
277
276
275
274
273
272
271
16
17
18
19
20
21
128
129
130
131
132
133
134
270
269
135
136
268
267
137
138
266
265
264
263
262
261
260
259
258
257
254
253
208
209
210
211
212
207
206
205
204
203
202
200
199
145
144
143
146
147
142
148
141
140
139
149
150
178
179
180
193
197
198
201
196
195
194
192
191
186
190
189
188
187
185
184
183
182
181
176
177
151
152
156
153
155
154
127
126
30
125
124
123
122
121
120
119
157
158
159
160
175
161
174
173
106
170
171
172
168
167
166
165
164
163
162
107
105
91
90
89
109
110
108
104
103
102
169
101
100
99
98
97
96
95
94
93
92
79
80
81
82
76
78
77
75
74
73
72
71
66
67
70
69
68
58
57
56
47
48
49
50
51
52
53
54
55
46
45
44
59
62
63
64
65
85
86
116
113
87
84
83
88
112
111
114
115
117
118
61
60
43
42
41
40
39
38
37
36
35
34
33
32
31
29
28
27
26
22
25
23
24
14
15
13
12
11
10
9
8
7
6
5
278
248
249
256
255
252
213
214
215
216
217
220
221
222
219
218
223
224
225
226
227
228
229
230
251
250
247
244
245
246
231
232
233
234
235
236
237
238
239
240
241
243
242
280
-1
EOF
